
Gurobi 5.0.0 (linux64) logging started Wed Jul 17 10:28:49 2013

Read LP format model from file /msc/neurospora/src/WholeCell/data/metabolism.full.mmol-gDCW-h.gurobi.lp
Reading time = 0.06 seconds
(null): 1156 rows, 1274 columns, 3368 nonzeros
Optimize a model with 1156 rows, 1274 columns and 3368 nonzeros
Presolve removed 1085 rows and 1151 columns
Presolve time: 0.01s
Presolved: 71 rows, 123 columns, 592 nonzeros

Iteration    Objective       Primal Inf.    Dual Inf.      Time
       0    2.2012815e-02   1.517578e+11   0.000000e+00      0s
      91    2.1936463e-02   0.000000e+00   0.000000e+00      0s

Solved in 91 iterations and 0.02 seconds
Optimal objective  2.193646278e-02
Warning: unscaled primal violation = 1.33354e-05 and residual = 1.33354e-05
Optimize a model with 1156 rows, 1274 columns and 3368 nonzeros
Iteration    Objective       Primal Inf.    Dual Inf.      Time
       0   -2.6617529e+11   1.461521e+13   0.000000e+00      0s
     146    5.3170650e+00   0.000000e+00   0.000000e+00      0s

Solved in 146 iterations and 0.01 seconds
Optimal objective  5.317065015e+00
Warning: unscaled primal violation = 5.72205e-06 and residual = 5.72205e-06
Read LP format model from file /msc/neurospora/src/WholeCell/data/metabolism.full.mmol-gDCW-h.gurobi.lp
Reading time = 0.04 seconds
(null): 1156 rows, 1274 columns, 3368 nonzeros
Optimize a model with 1156 rows, 1274 columns and 3368 nonzeros
Presolve removed 1084 rows and 1149 columns
Presolve time: 0.00s
Presolved: 72 rows, 125 columns, 593 nonzeros

Iteration    Objective       Primal Inf.    Dual Inf.      Time
       0    2.4603826e-01   7.640831e+10   0.000000e+00      0s
     128    1.6356624e-02   0.000000e+00   0.000000e+00      0s

Solved in 128 iterations and 0.01 seconds
Optimal objective  1.635662448e-02
Warning: unscaled primal violation = 4.5876e-06 and residual = 4.5876e-06

Gurobi 5.0.0 (linux64) logging started Wed Jul 17 10:30:07 2013

Read LP format model from file /msc/neurospora/src/WholeCell/data/metabolism.full.mmol-gDCW-h.gurobi.lp
Reading time = 0.07 seconds
(null): 1156 rows, 1274 columns, 3368 nonzeros
Optimize a model with 1156 rows, 1274 columns and 3368 nonzeros
Presolve removed 1085 rows and 1151 columns
Presolve time: 0.01s
Presolved: 71 rows, 123 columns, 592 nonzeros

Iteration    Objective       Primal Inf.    Dual Inf.      Time
       0    2.2012815e-02   1.517578e+11   0.000000e+00      0s
      91    2.1936463e-02   0.000000e+00   0.000000e+00      0s

Solved in 91 iterations and 0.02 seconds
Optimal objective  2.193646278e-02
Warning: unscaled primal violation = 1.33354e-05 and residual = 1.33354e-05
Optimize a model with 1156 rows, 1274 columns and 3368 nonzeros
Iteration    Objective       Primal Inf.    Dual Inf.      Time
       0   -2.6617529e+11   1.461521e+13   0.000000e+00      0s
     146    5.3170650e+00   0.000000e+00   0.000000e+00      0s

Solved in 146 iterations and 0.01 seconds
Optimal objective  5.317065015e+00
Warning: unscaled primal violation = 5.72205e-06 and residual = 5.72205e-06
Read LP format model from file /msc/neurospora/src/WholeCell/data/metabolism.full.mmol-gDCW-h.gurobi.lp
Reading time = 0.07 seconds
(null): 1156 rows, 1274 columns, 3368 nonzeros
Optimize a model with 1156 rows, 1274 columns and 3368 nonzeros
Presolve removed 1084 rows and 1149 columns
Presolve time: 0.00s
Presolved: 72 rows, 125 columns, 593 nonzeros

Iteration    Objective       Primal Inf.    Dual Inf.      Time
       0    2.4603826e-01   7.640831e+10   0.000000e+00      0s
     128    1.6356624e-02   0.000000e+00   0.000000e+00      0s

Solved in 128 iterations and 0.01 seconds
Optimal objective  1.635662448e-02
Warning: unscaled primal violation = 4.5876e-06 and residual = 4.5876e-06

Gurobi 5.0.0 (linux64) logging started Wed Jul 17 10:38:11 2013

Read LP format model from file ../data/metabolism.full.mmol-gDCW-h.gurobi.lp
Reading time = 0.03 seconds
(null): 1156 rows, 1274 columns, 3368 nonzeros
Read LP format model from file /Users/zucker/src/WholeCell/data/metabolism.full.mmol-gDCW-h.gurobi.lp
Reading time = 0.01 seconds
(null): 1156 rows, 1274 columns, 3368 nonzeros
Optimize a model with 1156 rows, 1274 columns and 3368 nonzeros
Presolve removed 1085 rows and 1151 columns
Presolve time: 0.00s
Presolved: 71 rows, 123 columns, 592 nonzeros

Iteration    Objective       Primal Inf.    Dual Inf.      Time
       0    2.2012815e-02   1.517578e+11   0.000000e+00      0s
      91    2.1936463e-02   0.000000e+00   0.000000e+00      0s

Solved in 91 iterations and 0.00 seconds
Optimal objective  2.193646278e-02
Warning: unscaled primal violation = 1.33354e-05 and residual = 1.33354e-05
Optimize a model with 1156 rows, 1274 columns and 3368 nonzeros
Model has 645 quadratic objective terms
Presolve removed 884 rows and 898 columns
Presolve time: 0.00s
Presolved: 272 rows, 376 columns, 1442 nonzeros
Presolved model has 301 quadratic objective terms
Ordering time: 0.00s

Barrier statistics:
 AA' NZ     : 4.038e+03
 Factor NZ  : 6.513e+03
 Factor Ops : 2.640e+05 (less than 1 second per iteration)
 Threads    : 1

                  Objective                Residual
Iter       Primal          Dual         Primal    Dual     Compl     Time
   0  -2.06248530e+30 -2.73041862e+30  4.75e+11 6.88e+19  8.61e+19     0s
   1   2.04138008e+31 -2.73041891e+30  4.75e+11 6.88e+19  2.88e+20     0s
   2   1.55283761e+31 -2.73041899e+30  4.75e+11 6.88e+19  3.46e+20     0s
   3  -2.06248530e+30 -2.73041862e+30  4.75e+11 6.88e+19  8.61e+19     0s
   4   2.04138008e+31 -2.73041891e+30  4.75e+11 6.88e+19  2.88e+20     0s
   5   1.55283761e+31 -2.73041899e+30  4.75e+11 6.88e+19  3.46e+20     0s
   6   1.25835862e+30 -2.73041913e+30  4.75e+11 6.88e+19  4.43e+20     0s

Barrier performed 6 iterations in 0.08 seconds
Numerical trouble encountered

Model may be infeasible or unbounded.  Consider using the
homogeneous algorithm (through parameter 'BarHomogeneous')

Optimize a model with 1156 rows, 1274 columns and 3368 nonzeros
Model has 645 quadratic objective terms
Presolve removed 884 rows and 898 columns
Presolve time: 0.00s
Presolved: 272 rows, 376 columns, 1442 nonzeros
Presolved model has 301 quadratic objective terms
Ordering time: 0.00s

Barrier statistics:
 AA' NZ     : 4.038e+03
 Factor NZ  : 6.513e+03
 Factor Ops : 2.640e+05 (less than 1 second per iteration)
 Threads    : 1

                  Objective                Residual
Iter       Primal          Dual         Primal    Dual     Compl     Time
   0  -2.06248530e+30 -2.73041862e+30  4.75e+11 6.88e+19  8.61e+19     0s
   1   2.04138008e+31 -2.73041891e+30  4.75e+11 6.88e+19  2.88e+20     0s
   2   1.55283761e+31 -2.73041899e+30  4.75e+11 6.88e+19  3.46e+20     0s
   3  -2.06248530e+30 -2.73041862e+30  4.75e+11 6.88e+19  8.61e+19     0s
   4  -2.06245258e+30 -2.73042103e+30  4.75e+11 6.88e+19  2.24e+22     0s
   5* -2.07687550e+30 -2.73286234e+30  3.87e+08 2.23e+17  7.10e+18     0s
   6* -1.07846779e+31 -4.07489797e+30  7.04e+05 4.06e+14  1.29e+16     0s
   7* -2.39330570e+31 -6.59013865e+30  2.84e+05 1.64e+14  5.33e+15     0s
   8* -3.36745370e+31 -2.46456347e+31  1.50e+05 8.65e+13  3.01e+15     0s
   9* -4.44423375e+31 -4.36475970e+31  1.80e+04 1.04e+13  4.25e+14     0s
  10* -4.59041416e+31 -4.58730613e+31  7.55e+02 4.35e+11  1.85e+13     0s
  11* -4.59663358e+31 -4.59660272e+31  9.38e+00 5.41e+09  2.33e+11     0s
  12* -4.59670948e+31 -4.59670945e+31  9.85e-03 5.67e+06  2.45e+08     0s
  13* -4.59670955e+31 -4.59670955e+31  1.03e-03 6.07e+05  2.64e+07     0s
  14* -4.59670956e+31 -4.59670956e+31  1.74e-04 7.29e+04  3.53e+06     0s
  15* -4.59670956e+31 -4.59670956e+31  1.31e-04 6.50e+04  2.53e+06     0s
  16* -4.59670956e+31 -4.59670956e+31  1.33e-04 3.40e+04  1.50e+06     0s
  17* -4.59670956e+31 -4.59670956e+31  1.25e-04 1.28e+04  3.65e+05     0s
  18* -4.59670956e+31 -4.59670956e+31  1.32e-04 4.86e+04  3.64e+05     0s
  19* -4.59670956e+31 -4.59670956e+31  1.24e-04 1.96e+04  1.94e+05     0s
  20* -4.59670956e+31 -4.59670956e+31  9.93e-05 1.62e+04  1.01e+05     0s
  21* -4.59670956e+31 -4.59670956e+31  6.97e-05 1.13e+04  3.22e+04     0s
  22* -4.59670956e+31 -4.59670956e+31  7.21e-05 1.69e+03  7.73e+03     0s
  23* -4.59670956e+31 -4.59670956e+31  6.59e-05 1.47e+03  6.03e+03     0s
  24* -4.59670956e+31 -4.59670956e+31  7.53e-05 9.58e+02  4.73e+03     0s
  25* -4.59670956e+31 -4.59670956e+31  6.78e-05 1.28e+03  3.92e+03     0s
  26* -4.59670956e+31 -4.59670956e+31  1.18e-04 1.19e+03  3.66e+03     0s
  27* -4.59670956e+31 -4.59670956e+31  7.19e-05 2.16e+05  1.81e+03     0s
  28* -4.59670956e+31 -4.59670956e+31  7.15e-05 2.12e+05  1.78e+03     0s
  29* -4.59670956e+31 -4.59670956e+31  6.95e-05 2.04e+05  1.71e+03     0s
  30* -4.59670956e+31 -4.59670956e+31  6.60e-05 1.84e+05  1.67e+03     0s
  31* -4.59670956e+31 -4.59670956e+31  6.49e-05 1.81e+05  1.63e+03     0s
  32* -4.59670956e+31 -4.59670956e+31  5.99e-05 1.46e+05  1.28e+03     0s
  33* -4.59670956e+31 -4.59670956e+31  5.95e-05 1.43e+05  1.25e+03     0s
  34* -4.59670956e+31 -4.59670956e+31  5.83e-05 1.29e+05  1.13e+03     0s
  35* -4.59670956e+31 -4.59670956e+31  5.65e-05 1.22e+05  1.08e+03     0s
  36* -4.59670956e+31 -4.59670956e+31  5.78e-05 1.10e+05  9.83e+02     0s
  37* -4.59670956e+31 -4.59670956e+31  5.63e-05 1.02e+05  9.08e+02     0s
  38* -4.59670956e+31 -4.59670956e+31  5.69e-05 1.00e+05  8.94e+02     0s
  39* -4.59670956e+31 -4.59670956e+31  5.66e-05 9.35e+04  8.44e+02     0s
  40* -4.59670956e+31 -4.59670956e+31  7.82e-05 6.33e+04  1.08e+03     0s
  41* -4.59670956e+31 -4.59670956e+31  7.54e-05 5.69e+04  1.02e+03     0s
  42* -4.59670956e+31 -4.59670956e+31  7.38e-05 4.61e+04  9.95e+02     0s
  43* -4.59670956e+31 -4.59670956e+31  8.27e-05 2.93e+04  7.77e+02     0s
  44* -4.59670956e+31 -4.59670956e+31  8.60e-05 2.64e+04  7.03e+02     0s
  45* -4.59670956e+31 -4.59670956e+31  8.38e-05 2.61e+04  6.92e+02     0s
  46* -4.59670956e+31 -4.59670956e+31  7.55e-05 2.17e+04  5.74e+02     0s
  47* -4.59670956e+31 -4.59670956e+31  1.30e-04 1.95e+04  4.59e+02     0s
  48* -4.59670956e+31 -4.59670956e+31  9.85e-05 1.38e+04  3.23e+02     0s
  49* -4.59670956e+31 -4.59670956e+31  9.33e-05 1.28e+04  2.96e+02     0s
  50* -4.59670956e+31 -4.59670956e+31  8.97e-05 1.21e+04  2.90e+02     0s
  51* -4.59670956e+31 -4.59670956e+31  8.41e-05 1.10e+04  2.67e+02     0s
  52* -4.59670956e+31 -4.59670956e+31  8.15e-05 5.51e+03  4.83e+02     0s
  53* -4.59670956e+31 -4.59670956e+31  6.91e-05 5.16e+03  4.81e+02     0s
  54* -4.59670956e+31 -4.59670956e+31  6.82e-05 4.87e+03  4.69e+02     0s
  55* -4.59670956e+31 -4.59670956e+31  6.61e-05 4.57e+03  4.31e+02     0s
  56* -4.59670956e+31 -4.59670956e+31  6.58e-05 4.47e+03  4.21e+02     0s
  57* -4.59670956e+31 -4.59670956e+31  6.37e-05 4.18e+03  3.93e+02     0s
  58* -4.59670956e+31 -4.59670956e+31  6.07e-05 3.71e+03  3.59e+02     0s
  59* -4.59670956e+31 -4.59670956e+31  5.49e-05 2.41e+03  3.47e+02     0s
  60* -4.59670956e+31 -4.59670956e+31  4.98e-05 2.21e+03  3.01e+02     0s
  61* -4.59670956e+31 -4.59670956e+31  4.65e-05 1.39e+03  2.38e+02     0s
  62* -4.59670956e+31 -4.59670956e+31  4.65e-05 1.38e+03  2.36e+02     0s
  63* -4.59670956e+31 -4.59670956e+31  4.82e-05 8.90e+02  2.08e+02     0s
  64* -4.59670956e+31 -4.59670956e+31  4.78e-05 8.82e+02  2.10e+02     0s
  65* -4.59670956e+31 -4.59670956e+31  4.70e-05 7.88e+02  7.17e+02     0s
  66* -4.59670956e+31 -4.59670956e+31  4.64e-05 7.77e+02  5.81e+02     0s
  67* -4.59670956e+31 -4.59670956e+31  6.39e-05 7.25e+02  4.04e+02     0s
  68* -4.59670956e+31 -4.59670956e+31  5.99e-05 5.94e+02  3.80e+02     0s
  69* -4.59670956e+31 -4.59670956e+31  5.98e-05 5.93e+02  3.80e+02     0s
  70* -4.59670956e+31 -4.59670956e+31  5.97e-05 5.88e+02  3.80e+02     0s
  71* -4.59670956e+31 -4.59670956e+31  5.56e-05 4.31e+03  3.34e+02     0s
  72* -4.59670956e+31 -4.59670956e+31  5.25e-05 6.05e+03  2.66e+02     0s
  73* -4.59670956e+31 -4.59670956e+31  4.96e-05 3.81e+03  2.53e+02     0s
  74* -4.59670956e+31 -4.59670956e+31  4.69e-05 5.41e+03  1.57e+02     0s
  75* -4.59670956e+31 -4.59670956e+31  5.19e-05 5.10e+03  1.54e+02     1s
  76* -4.59670956e+31 -4.59670956e+31  6.38e-05 4.42e+03  1.36e+02     1s
  77* -4.59670956e+31 -4.59670956e+31  6.38e-05 4.42e+03  1.36e+02     1s
  78* -4.59670956e+31 -4.59670956e+31  6.38e-05 4.42e+03  1.36e+02     1s
  79* -4.59670956e+31 -4.59670956e+31  6.10e-05 3.72e+03  1.25e+02     1s
  80* -4.59670956e+31 -4.59670956e+31  5.49e-05 3.02e+03  1.25e+02     1s
  81* -4.59670956e+31 -4.59670956e+31  4.95e-05 2.46e+03  1.07e+02     1s
  82* -4.59670956e+31 -4.59670956e+31  6.44e-05 1.59e+03  1.77e+02     1s
  83* -4.59670956e+31 -4.59670956e+31  5.80e-05 1.38e+03  1.58e+02     1s
  84* -4.59670956e+31 -4.59670956e+31  5.79e-05 1.30e+03  1.60e+02     1s

Barrier performed 84 iterations in 0.57 seconds
Sub-optimal termination - objective -4.59670956e+31

Read LP format model from file /Users/zucker/src/WholeCell/data/metabolism.full.mmol-gDCW-h.gurobi.lp
Reading time = 0.01 seconds
(null): 1156 rows, 1274 columns, 3368 nonzeros
Optimize a model with 1156 rows, 1274 columns and 3368 nonzeros
Presolve removed 1085 rows and 1151 columns
Presolve time: 0.00s
Presolved: 71 rows, 123 columns, 592 nonzeros

Iteration    Objective       Primal Inf.    Dual Inf.      Time
       0    2.2012815e-02   1.517578e+11   0.000000e+00      0s
      91    2.1936463e-02   0.000000e+00   0.000000e+00      0s

Solved in 91 iterations and 0.00 seconds
Optimal objective  2.193646278e-02
Warning: unscaled primal violation = 1.33354e-05 and residual = 1.33354e-05
Optimize a model with 1156 rows, 1274 columns and 3368 nonzeros
Model has 645 quadratic objective terms
Presolve removed 884 rows and 898 columns
Presolve time: 0.00s
Presolved: 272 rows, 376 columns, 1442 nonzeros
Presolved model has 301 quadratic objective terms
Ordering time: 0.00s

Barrier statistics:
 AA' NZ     : 4.038e+03
 Factor NZ  : 6.513e+03
 Factor Ops : 2.640e+05 (less than 1 second per iteration)
 Threads    : 1

                  Objective                Residual
Iter       Primal          Dual         Primal    Dual     Compl     Time
   0  -2.06248530e+30 -2.73041862e+30  4.75e+11 6.88e+19  8.61e+19     0s
   1   2.04138008e+31 -2.73041891e+30  4.75e+11 6.88e+19  2.88e+20     0s
   2   1.55283761e+31 -2.73041899e+30  4.75e+11 6.88e+19  3.46e+20     0s
   3  -2.06248530e+30 -2.73041862e+30  4.75e+11 6.88e+19  8.61e+19     0s
   4   2.04138008e+31 -2.73041891e+30  4.75e+11 6.88e+19  2.88e+20     0s
   5   1.55283761e+31 -2.73041899e+30  4.75e+11 6.88e+19  3.46e+20     0s
   6   1.25835862e+30 -2.73041913e+30  4.75e+11 6.88e+19  4.43e+20     0s

Barrier performed 6 iterations in 0.07 seconds
Numerical trouble encountered

Model may be infeasible or unbounded.  Consider using the
homogeneous algorithm (through parameter 'BarHomogeneous')

Optimize a model with 1156 rows, 1274 columns and 3368 nonzeros
Model has 645 quadratic objective terms
Presolve removed 884 rows and 898 columns
Presolve time: 0.00s
Presolved: 272 rows, 376 columns, 1442 nonzeros
Presolved model has 301 quadratic objective terms
Ordering time: 0.00s

Barrier statistics:
 AA' NZ     : 4.038e+03
 Factor NZ  : 6.513e+03
 Factor Ops : 2.640e+05 (less than 1 second per iteration)
 Threads    : 1

                  Objective                Residual
Iter       Primal          Dual         Primal    Dual     Compl     Time
   0  -2.06248530e+30 -2.73041862e+30  4.75e+11 6.88e+19  8.61e+19     0s
   1   2.04138008e+31 -2.73041891e+30  4.75e+11 6.88e+19  2.88e+20     0s
   2   1.55283761e+31 -2.73041899e+30  4.75e+11 6.88e+19  3.46e+20     0s
   3  -2.06248530e+30 -2.73041862e+30  4.75e+11 6.88e+19  8.61e+19     0s
   4  -2.06245258e+30 -2.73042103e+30  4.75e+11 6.88e+19  2.24e+22     0s
   5* -2.07687550e+30 -2.73286234e+30  3.87e+08 2.23e+17  7.10e+18     0s
   6* -1.07846779e+31 -4.07489797e+30  7.04e+05 4.06e+14  1.29e+16     0s
   7* -2.39330570e+31 -6.59013865e+30  2.84e+05 1.64e+14  5.33e+15     0s
   8* -3.36745370e+31 -2.46456347e+31  1.50e+05 8.65e+13  3.01e+15     0s
   9* -4.44423375e+31 -4.36475970e+31  1.80e+04 1.04e+13  4.25e+14     0s
  10* -4.59041416e+31 -4.58730613e+31  7.55e+02 4.35e+11  1.85e+13     0s
  11* -4.59663358e+31 -4.59660272e+31  9.38e+00 5.41e+09  2.33e+11     0s
  12* -4.59670948e+31 -4.59670945e+31  9.85e-03 5.67e+06  2.45e+08     0s
  13* -4.59670955e+31 -4.59670955e+31  1.03e-03 6.07e+05  2.64e+07     0s
  14* -4.59670956e+31 -4.59670956e+31  1.74e-04 7.29e+04  3.53e+06     0s
  15* -4.59670956e+31 -4.59670956e+31  1.31e-04 6.50e+04  2.53e+06     0s
  16* -4.59670956e+31 -4.59670956e+31  1.33e-04 3.40e+04  1.50e+06     0s
  17* -4.59670956e+31 -4.59670956e+31  1.25e-04 1.28e+04  3.65e+05     0s
  18* -4.59670956e+31 -4.59670956e+31  1.32e-04 4.86e+04  3.64e+05     0s
  19* -4.59670956e+31 -4.59670956e+31  1.24e-04 1.96e+04  1.94e+05     0s
  20* -4.59670956e+31 -4.59670956e+31  9.93e-05 1.62e+04  1.01e+05     0s
  21* -4.59670956e+31 -4.59670956e+31  6.97e-05 1.13e+04  3.22e+04     0s
  22* -4.59670956e+31 -4.59670956e+31  7.21e-05 1.69e+03  7.73e+03     0s
  23* -4.59670956e+31 -4.59670956e+31  6.59e-05 1.47e+03  6.03e+03     0s
  24* -4.59670956e+31 -4.59670956e+31  7.53e-05 9.58e+02  4.73e+03     0s
  25* -4.59670956e+31 -4.59670956e+31  6.78e-05 1.28e+03  3.92e+03     0s
  26* -4.59670956e+31 -4.59670956e+31  1.18e-04 1.19e+03  3.66e+03     0s
  27* -4.59670956e+31 -4.59670956e+31  7.19e-05 2.16e+05  1.81e+03     0s
  28* -4.59670956e+31 -4.59670956e+31  7.15e-05 2.12e+05  1.78e+03     0s
  29* -4.59670956e+31 -4.59670956e+31  6.95e-05 2.04e+05  1.71e+03     0s
  30* -4.59670956e+31 -4.59670956e+31  6.60e-05 1.84e+05  1.67e+03     0s
  31* -4.59670956e+31 -4.59670956e+31  6.49e-05 1.81e+05  1.63e+03     0s
  32* -4.59670956e+31 -4.59670956e+31  5.99e-05 1.46e+05  1.28e+03     0s
  33* -4.59670956e+31 -4.59670956e+31  5.95e-05 1.43e+05  1.25e+03     0s
  34* -4.59670956e+31 -4.59670956e+31  5.83e-05 1.29e+05  1.13e+03     0s
  35* -4.59670956e+31 -4.59670956e+31  5.65e-05 1.22e+05  1.08e+03     0s
  36* -4.59670956e+31 -4.59670956e+31  5.78e-05 1.10e+05  9.83e+02     0s
  37* -4.59670956e+31 -4.59670956e+31  5.63e-05 1.02e+05  9.08e+02     0s
  38* -4.59670956e+31 -4.59670956e+31  5.69e-05 1.00e+05  8.94e+02     0s
  39* -4.59670956e+31 -4.59670956e+31  5.66e-05 9.35e+04  8.44e+02     0s
  40* -4.59670956e+31 -4.59670956e+31  7.82e-05 6.33e+04  1.08e+03     0s
  41* -4.59670956e+31 -4.59670956e+31  7.54e-05 5.69e+04  1.02e+03     0s
  42* -4.59670956e+31 -4.59670956e+31  7.38e-05 4.61e+04  9.95e+02     0s
  43* -4.59670956e+31 -4.59670956e+31  8.27e-05 2.93e+04  7.77e+02     0s
  44* -4.59670956e+31 -4.59670956e+31  8.60e-05 2.64e+04  7.03e+02     0s
  45* -4.59670956e+31 -4.59670956e+31  8.38e-05 2.61e+04  6.92e+02     0s
  46* -4.59670956e+31 -4.59670956e+31  7.55e-05 2.17e+04  5.74e+02     0s
  47* -4.59670956e+31 -4.59670956e+31  1.30e-04 1.95e+04  4.59e+02     0s
  48* -4.59670956e+31 -4.59670956e+31  9.85e-05 1.38e+04  3.23e+02     0s
  49* -4.59670956e+31 -4.59670956e+31  9.33e-05 1.28e+04  2.96e+02     0s
  50* -4.59670956e+31 -4.59670956e+31  8.97e-05 1.21e+04  2.90e+02     0s
  51* -4.59670956e+31 -4.59670956e+31  8.41e-05 1.10e+04  2.67e+02     0s
  52* -4.59670956e+31 -4.59670956e+31  8.15e-05 5.51e+03  4.83e+02     0s
  53* -4.59670956e+31 -4.59670956e+31  6.91e-05 5.16e+03  4.81e+02     0s
  54* -4.59670956e+31 -4.59670956e+31  6.82e-05 4.87e+03  4.69e+02     0s
  55* -4.59670956e+31 -4.59670956e+31  6.61e-05 4.57e+03  4.31e+02     0s
  56* -4.59670956e+31 -4.59670956e+31  6.58e-05 4.47e+03  4.21e+02     0s
  57* -4.59670956e+31 -4.59670956e+31  6.37e-05 4.18e+03  3.93e+02     0s
  58* -4.59670956e+31 -4.59670956e+31  6.07e-05 3.71e+03  3.59e+02     0s
  59* -4.59670956e+31 -4.59670956e+31  5.49e-05 2.41e+03  3.47e+02     0s
  60* -4.59670956e+31 -4.59670956e+31  4.98e-05 2.21e+03  3.01e+02     0s
  61* -4.59670956e+31 -4.59670956e+31  4.65e-05 1.39e+03  2.38e+02     0s
  62* -4.59670956e+31 -4.59670956e+31  4.65e-05 1.38e+03  2.36e+02     0s
  63* -4.59670956e+31 -4.59670956e+31  4.82e-05 8.90e+02  2.08e+02     0s
  64* -4.59670956e+31 -4.59670956e+31  4.78e-05 8.82e+02  2.10e+02     0s
  65* -4.59670956e+31 -4.59670956e+31  4.70e-05 7.88e+02  7.17e+02     0s
  66* -4.59670956e+31 -4.59670956e+31  4.64e-05 7.77e+02  5.81e+02     0s
  67* -4.59670956e+31 -4.59670956e+31  6.39e-05 7.25e+02  4.04e+02     0s
  68* -4.59670956e+31 -4.59670956e+31  5.99e-05 5.94e+02  3.80e+02     0s
  69* -4.59670956e+31 -4.59670956e+31  5.98e-05 5.93e+02  3.80e+02     0s
  70* -4.59670956e+31 -4.59670956e+31  5.97e-05 5.88e+02  3.80e+02     0s
  71* -4.59670956e+31 -4.59670956e+31  5.56e-05 4.31e+03  3.34e+02     0s
  72* -4.59670956e+31 -4.59670956e+31  5.25e-05 6.05e+03  2.66e+02     0s
  73* -4.59670956e+31 -4.59670956e+31  4.96e-05 3.81e+03  2.53e+02     0s
  74* -4.59670956e+31 -4.59670956e+31  4.69e-05 5.41e+03  1.57e+02     0s
  75* -4.59670956e+31 -4.59670956e+31  5.19e-05 5.10e+03  1.54e+02     0s
  76* -4.59670956e+31 -4.59670956e+31  6.38e-05 4.42e+03  1.36e+02     0s
  77* -4.59670956e+31 -4.59670956e+31  6.38e-05 4.42e+03  1.36e+02     1s
  78* -4.59670956e+31 -4.59670956e+31  6.38e-05 4.42e+03  1.36e+02     1s
  79* -4.59670956e+31 -4.59670956e+31  6.10e-05 3.72e+03  1.25e+02     1s
  80* -4.59670956e+31 -4.59670956e+31  5.49e-05 3.02e+03  1.25e+02     1s
  81* -4.59670956e+31 -4.59670956e+31  4.95e-05 2.46e+03  1.07e+02     1s
  82* -4.59670956e+31 -4.59670956e+31  6.44e-05 1.59e+03  1.77e+02     1s
  83* -4.59670956e+31 -4.59670956e+31  5.80e-05 1.38e+03  1.58e+02     1s
  84* -4.59670956e+31 -4.59670956e+31  5.79e-05 1.30e+03  1.60e+02     1s

Barrier performed 84 iterations in 0.51 seconds
Sub-optimal termination - objective -4.59670956e+31

Optimize a model with 1156 rows, 1274 columns and 3368 nonzeros
Model has 645 quadratic objective terms
Presolve removed 884 rows and 898 columns
Presolve time: 0.00s
Presolved: 272 rows, 376 columns, 1442 nonzeros
Presolved model has 301 quadratic objective terms
Ordering time: 0.00s

Barrier statistics:
 AA' NZ     : 4.038e+03
 Factor NZ  : 6.513e+03
 Factor Ops : 2.640e+05 (less than 1 second per iteration)
 Threads    : 1

                  Objective                Residual
Iter       Primal          Dual         Primal    Dual     Compl     Time
   0  -3.09372043e+27 -4.09566624e+27  4.75e+11 1.03e+17  8.61e+19     0s
   1   3.06206521e+28 -4.09595767e+27  4.75e+11 1.03e+17  2.88e+20     0s
   2   2.32913250e+28 -4.09603205e+27  4.75e+11 1.03e+17  3.46e+20     0s
   3  -3.09372043e+27 -4.09566624e+27  4.75e+11 1.03e+17  8.61e+19     0s
   4  -3.11262222e+27 -4.10358665e+27  4.75e+11 1.03e+17  2.86e+22     0s
   5* -1.40882149e+28 -8.77425602e+27  3.20e+07 2.77e+13  3.67e+16     0s
   6* -3.74969103e+28 -2.03090256e+28  1.04e+07 8.95e+12  1.24e+16     0s
   7* -5.02283715e+28 -4.34368607e+28  5.65e+06 4.88e+12  8.15e+15     0s
   8* -6.80334642e+28 -6.77734483e+28  2.58e+05 2.23e+11  4.52e+14     0s
   9* -6.89347240e+28 -6.89312358e+28  4.73e+03 4.09e+09  8.78e+12     0s
  10* -6.89506172e+28 -6.89506125e+28  6.74e+00 5.82e+06  1.25e+10     0s
  11* -6.89506397e+28 -6.89506397e+28  1.21e-02 1.05e+04  3.40e+07     0s
  12* -6.89506397e+28 -6.89506398e+28  4.28e-03 5.19e+03  1.27e+07     0s
  13* -6.89506397e+28 -6.89506397e+28  9.51e-04 3.24e+03  3.27e+06     0s
  14* -6.89506397e+28 -6.89506397e+28  7.70e-04 2.65e+03  2.68e+06     0s
  15* -6.89506397e+28 -6.89506397e+28  6.15e-04 2.16e+03  2.20e+06     0s
  16* -6.89506398e+28 -6.89506397e+28  4.84e-04 1.49e+03  1.52e+06     0s
  17* -6.89506398e+28 -6.89506397e+28  2.47e-04 6.36e+02  6.67e+05     0s
  18* -6.89506398e+28 -6.89506398e+28  5.24e-05 8.95e+01  1.14e+05     0s
  19* -6.89506398e+28 -6.89506398e+28  3.41e-05 7.88e+01  5.65e+04     0s
  20* -6.89506398e+28 -6.89506398e+28  3.33e-05 4.59e+01  2.81e+04     0s
  21* -6.89506398e+28 -6.89506398e+28  4.05e-05 2.79e+01  1.74e+04     0s
  22* -6.89506398e+28 -6.89506398e+28  3.19e-05 1.95e+01  1.51e+04     0s
  23* -6.89506398e+28 -6.89506398e+28  6.86e-05 2.03e+01  8.03e+03     0s
  24* -6.89506398e+28 -6.89506398e+28  5.00e-05 5.95e+01  5.47e+03     0s
  25* -6.89506398e+28 -6.89506398e+28  1.61e-04 5.86e+01  5.16e+03     0s
  26* -6.89506398e+28 -6.89506398e+28  1.04e-04 6.24e+01  4.08e+03     0s
  27* -6.89506398e+28 -6.89506398e+28  3.03e-05 1.55e+01  1.27e+03     0s
  28* -6.89506398e+28 -6.89506398e+28  2.93e-05 1.41e+01  1.14e+03     0s
  29* -6.89506398e+28 -6.89506398e+28  2.25e-05 3.33e+00  7.47e+02     0s
  30* -6.89506398e+28 -6.89506398e+28  2.22e-05 3.43e+00  7.09e+02     0s
  31* -6.89506398e+28 -6.89506398e+28  2.40e-05 4.89e+00  6.67e+02     0s
  32* -6.89506398e+28 -6.89506398e+28  2.48e-05 5.52e+00  6.14e+02     0s
  33* -6.89506398e+28 -6.89506398e+28  2.27e-05 5.12e+00  3.09e+02     0s
  34* -6.89506398e+28 -6.89506398e+28  2.12e-05 2.77e+00  3.09e+02     0s
  35* -6.89506398e+28 -6.89506398e+28  2.22e-05 2.54e+00  2.99e+02     0s
  36* -6.89506398e+28 -6.89506398e+28  9.95e-05 1.07e+00  2.33e+02     0s
  37* -6.89506398e+28 -6.89506398e+28  9.95e-05 1.03e+00  2.33e+02     0s
  38* -6.89506398e+28 -6.89506398e+28  9.85e-05 1.07e+00  2.30e+02     0s
  39* -6.89506398e+28 -6.89506398e+28  9.76e-05 3.31e-01  2.14e+02     0s
  40* -6.89506398e+28 -6.89506398e+28  9.57e-05 1.03e+00  2.72e+02     0s
  41* -6.89506398e+28 -6.89506398e+28  1.87e-05 5.33e+00  5.39e+02     0s
  42* -6.89506398e+28 -6.89506398e+28  2.06e-05 3.01e+01  4.97e+02     0s
  43* -6.89506398e+28 -6.89506398e+28  1.91e-05 1.06e+01  3.87e+02     0s
  44* -6.89506398e+28 -6.89506398e+28  2.57e-05 1.23e+01  5.90e+01     0s
  45* -6.89506398e+28 -6.89506398e+28  1.75e-05 8.94e+00  1.92e+01     0s
  46* -6.89506398e+28 -6.89506398e+28  1.78e-05 2.75e+01  1.89e+01     0s
  47* -6.89506398e+28 -6.89506398e+28  1.73e-05 1.21e+01  2.28e+01     0s
  48* -6.89506398e+28 -6.89506398e+28  1.56e-05 1.22e+01  2.25e+01     0s
  49* -6.89506398e+28 -6.89506398e+28  1.56e-05 1.26e+01  2.17e+01     0s
  50* -6.89506398e+28 -6.89506398e+28  1.60e-05 3.01e+01  2.05e+01     0s
  51* -6.89506398e+28 -6.89506398e+28  1.72e-05 2.43e+01  3.15e+01     0s
  52* -6.89506398e+28 -6.89506398e+28  1.52e-05 2.34e+01  4.63e+01     0s
  53* -6.89506398e+28 -6.89506398e+28  1.48e-05 9.53e+00  4.92e+01     0s
  54* -6.89506398e+28 -6.89506398e+28  1.45e-05 2.42e+01  3.29e+01     0s
  55* -6.89506398e+28 -6.89506398e+28  1.39e-05 2.30e+01  2.53e+01     0s
  56* -6.89506398e+28 -6.89506398e+28  1.45e-05 8.81e+00  3.35e+01     0s
  57* -6.89506398e+28 -6.89506398e+28  1.40e-05 9.76e+00  3.09e+01     0s
  58* -6.89506398e+28 -6.89506398e+28  1.27e-05 9.19e+00  2.12e+01     0s
  59* -6.89506398e+28 -6.89506398e+28  1.33e-05 1.11e+01  1.23e+01     0s
  60* -6.89506398e+28 -6.89506398e+28  1.32e-05 8.34e+00  8.86e+00     0s
  61* -6.89506398e+28 -6.89506398e+28  1.32e-05 8.71e+00  8.51e+00     0s
  62* -6.89506398e+28 -6.89506398e+28  1.29e-05 2.51e+01  8.10e+00     0s
  63* -6.89506398e+28 -6.89506398e+28  1.27e-05 1.92e+01  7.99e+00     0s
  64* -6.89506398e+28 -6.89506398e+28  1.25e-05 4.19e+01  7.43e+00     0s
  65* -6.89506398e+28 -6.89506398e+28  1.25e-05 4.17e+01  7.34e+00     0s
  66* -6.89506398e+28 -6.89506398e+28  1.35e-05 2.06e+01  5.85e+00     0s
  67* -6.89506398e+28 -6.89506398e+28  1.36e-05 2.82e+01  2.80e+01     0s
  68* -6.89506398e+28 -6.89506398e+28  1.35e-05 2.31e+01  2.79e+01     0s
  69* -6.89506398e+28 -6.89506398e+28  1.32e-05 9.11e+00  2.71e+01     0s
  70* -6.89506398e+28 -6.89506398e+28  1.34e-05 1.51e+01  2.64e+01     0s
  71* -6.89506398e+28 -6.89506398e+28  1.34e-05 3.02e+01  1.47e+01     0s
  72* -6.89506398e+28 -6.89506398e+28  1.33e-05 3.32e+01  1.43e+01     0s
  73* -6.89506398e+28 -6.89506398e+28  1.33e-05 2.74e+01  1.43e+01     0s
  74* -6.89506398e+28 -6.89506398e+28  1.28e-05 3.60e+01  1.32e+01     0s
  75* -6.89506398e+28 -6.89506398e+28  1.27e-05 2.66e+01  1.34e+01     0s

Barrier performed 75 iterations in 0.40 seconds
Sub-optimal termination - objective -6.89506398e+28

Read LP format model from file /Users/zucker/src/WholeCell/data/metabolism.full.mmol-gDCW-h.gurobi.lp
Reading time = 0.03 seconds
(null): 1156 rows, 1274 columns, 3368 nonzeros
Optimize a model with 1156 rows, 1274 columns and 3368 nonzeros
Presolve removed 1085 rows and 1151 columns
Presolve time: 0.00s
Presolved: 71 rows, 123 columns, 592 nonzeros

Iteration    Objective       Primal Inf.    Dual Inf.      Time
       0    2.2012815e-02   1.517578e+11   0.000000e+00      0s
      91    2.1936463e-02   0.000000e+00   0.000000e+00      0s

Solved in 91 iterations and 0.00 seconds
Optimal objective  2.193646278e-02
Warning: unscaled primal violation = 1.33354e-05 and residual = 1.33354e-05
Optimize a model with 1156 rows, 1274 columns and 3368 nonzeros
Model has 645 quadratic objective terms
Presolve removed 884 rows and 898 columns
Presolve time: 0.00s
Presolved: 272 rows, 376 columns, 1442 nonzeros
Presolved model has 301 quadratic objective terms
Ordering time: 0.00s

Barrier statistics:
 AA' NZ     : 4.038e+03
 Factor NZ  : 6.513e+03
 Factor Ops : 2.640e+05 (less than 1 second per iteration)
 Threads    : 1

                  Objective                Residual
Iter       Primal          Dual         Primal    Dual     Compl     Time
   0  -3.09372043e+27 -4.09566624e+27  4.75e+11 1.03e+17  8.61e+19     0s
   1   3.06206521e+28 -4.09595767e+27  4.75e+11 1.03e+17  2.88e+20     0s
   2   2.32913250e+28 -4.09603205e+27  4.75e+11 1.03e+17  3.46e+20     0s
   3  -3.09372043e+27 -4.09566624e+27  4.75e+11 1.03e+17  8.61e+19     0s
   4  -3.11262222e+27 -4.10358665e+27  4.75e+11 1.03e+17  2.86e+22     0s
   5* -1.40882151e+28 -8.77425599e+27  3.20e+07 2.77e+13  3.67e+16     0s
   6* -3.74969103e+28 -2.03090255e+28  1.04e+07 8.95e+12  1.24e+16     0s
   7* -5.02283715e+28 -4.34368605e+28  5.65e+06 4.88e+12  8.15e+15     0s
   8* -6.80334642e+28 -6.77734483e+28  2.58e+05 2.23e+11  4.52e+14     0s
   9* -6.89347240e+28 -6.89312358e+28  4.73e+03 4.09e+09  8.78e+12     0s
  10* -6.89506172e+28 -6.89506125e+28  6.74e+00 5.82e+06  1.25e+10     0s
  11* -6.89506397e+28 -6.89506397e+28  1.21e-02 1.05e+04  3.40e+07     0s
  12* -6.89506397e+28 -6.89506398e+28  3.06e-03 3.83e+03  9.77e+06     0s
  13* -6.89506397e+28 -6.89506398e+28  9.74e-04 1.27e+03  3.76e+06     0s
  14* -6.89506397e+28 -6.89506398e+28  6.59e-04 8.55e+02  2.57e+06     0s
  15* -6.89506398e+28 -6.89506398e+28  2.11e-04 2.45e+02  7.48e+05     0s
  16* -6.89506398e+28 -6.89506398e+28  1.28e-04 5.44e+02  3.81e+05     0s
  17* -6.89506398e+28 -6.89506398e+28  9.60e-05 2.35e+02  1.89e+05     0s
  18* -6.89506398e+28 -6.89506398e+28  6.68e-05 2.76e+01  3.46e+04     0s
  19* -6.89506398e+28 -6.89506398e+28  6.23e-05 2.46e+01  2.92e+04     0s
  20* -6.89506398e+28 -6.89506398e+28  5.08e-05 1.67e+01  2.10e+04     0s
  21* -6.89506398e+28 -6.89506398e+28  3.92e-05 1.92e+01  6.81e+03     0s
  22* -6.89506398e+28 -6.89506398e+28  1.15e-04 3.34e+01  6.17e+03     0s
  23* -6.89506398e+28 -6.89506398e+28  1.11e-04 3.26e+01  6.03e+03     0s
  24* -6.89506398e+28 -6.89506398e+28  1.10e-04 3.26e+01  6.00e+03     0s
  25* -6.89506398e+28 -6.89506398e+28  1.08e-04 3.25e+01  5.99e+03     0s
  26* -6.89506398e+28 -6.89506398e+28  1.05e-04 3.07e+01  5.85e+03     0s
  27* -6.89506398e+28 -6.89506398e+28  1.02e-04 3.19e+01  5.65e+03     0s
  28* -6.89506398e+28 -6.89506398e+28  1.00e-04 3.22e+01  5.60e+03     0s
  29* -6.89506398e+28 -6.89506398e+28  9.47e-05 3.28e+01  4.84e+03     0s
  30* -6.89506398e+28 -6.89506398e+28  8.08e-05 7.46e+01  4.14e+03     0s
  31* -6.89506398e+28 -6.89506398e+28  7.31e-05 7.41e+01  4.05e+03     0s
  32* -6.89506398e+28 -6.89506398e+28  7.36e-05 6.85e+01  3.85e+03     0s
  33* -6.89506398e+28 -6.89506398e+28  6.47e-05 5.73e+01  3.39e+03     0s
  34* -6.89506398e+28 -6.89506398e+28  5.76e-05 5.65e+01  3.38e+03     0s
  35* -6.89506398e+28 -6.89506398e+28  4.74e-05 3.02e+01  2.88e+03     0s
  36* -6.89506398e+28 -6.89506398e+28  4.72e-05 2.93e+01  2.85e+03     0s
  37* -6.89506398e+28 -6.89506398e+28  4.33e-05 2.53e+01  1.43e+03     0s
  38* -6.89506398e+28 -6.89506398e+28  5.00e-05 2.37e+01  6.31e+02     0s
  39* -6.89506398e+28 -6.89506398e+28  4.59e-05 2.43e+01  5.76e+02     0s
  40* -6.89506398e+28 -6.89506398e+28  4.20e-05 4.70e+01  3.57e+02     0s
  41* -6.89506398e+28 -6.89506398e+28  4.25e-05 3.14e+01  2.30e+02     0s
  42* -6.89506398e+28 -6.89506398e+28  1.30e-04 1.23e+01  8.12e+02     0s
  43* -6.89506398e+28 -6.89506398e+28  1.65e-04 2.71e+01  5.83e+02     0s
  44* -6.89506398e+28 -6.89506398e+28  1.33e-04 1.61e+01  4.91e+02     0s
  45* -6.89506398e+28 -6.89506398e+28  1.24e-04 1.53e+01  4.80e+02     0s
  46* -6.89506398e+28 -6.89506398e+28  1.08e-04 1.18e+01  3.54e+02     0s
  47* -6.89506398e+28 -6.89506398e+28  1.11e-04 1.17e+01  3.52e+02     0s
  48* -6.89506398e+28 -6.89506398e+28  1.10e-04 1.16e+01  3.49e+02     0s
  49* -6.89506398e+28 -6.89506398e+28  1.04e-04 8.00e+00  3.66e+02     0s
  50* -6.89506398e+28 -6.89506398e+28  1.04e-04 8.02e+00  3.65e+02     0s
  51* -6.89506398e+28 -6.89506398e+28  1.01e-04 7.52e+00  3.55e+02     0s

Barrier performed 51 iterations in 0.37 seconds
Sub-optimal termination - objective -6.89506398e+28

